certificates/rado_a9_c177_N22.cnf
c Rad2 upper bound instance: x1 + 9*x2 - x3 = 177, interval [1,22]
p cnf 22 104
1 4 20 0
-1 -4 -20 0
1 13 21 0
-1 -13 -21 0
1 22 0
-1 -22 0
2 5 20 0
-2 -5 -20 0
2 14 21 0
-2 -14 -21 0
3 6 20 0
-3 -6 -20 0
3 15 21 0
-3 -15 -21 0
4 7 20 0
-4 -7 -20 0
4 16 21 0
-4 -16 -21 0
5 8 20 0
-5 -8 -20 0
5 17 21 0
-5 -17 -21 0
6 9 20 0
-6 -9 -20 0
6 18 21 0
-6 -18 -21 0
1 7 19 0
-1 -7 -19 0
7 10 20 0
-7 -10 -20 0
7 19 21 0
-7 -19 -21 0
2 8 19 0
-2 -8 -19 0
8 11 20 0
-8 -11 -20 0
8 20 21 0
-8 -20 -21 0
3 9 19 0
-3 -9 -19 0
9 12 20 0
-9 -12 -20 0
9 21 0
-9 -21 0
4 10 19 0
-4 -10 -19 0
10 13 20 0
-10 -13 -20 0
10 21 22 0
-10 -21 -22 0
5 11 19 0
-5 -11 -19 0
11 14 20 0
-11 -14 -20 0
6 12 19 0
-6 -12 -19 0
12 15 20 0
-12 -15 -20 0
7 13 19 0
-7 -13 -19 0
13 16 20 0
-13 -16 -20 0
8 14 19 0
-8 -14 -19 0
14 17 20 0
-14 -17 -20 0
9 15 19 0
-9 -15 -19 0
15 18 20 0
-15 -18 -20 0
1 16 18 0
-1 -16 -18 0
10 16 19 0
-10 -16 -19 0
16 19 20 0
-16 -19 -20 0
2 17 18 0
-2 -17 -18 0
11 17 19 0
-11 -17 -19 0
17 20 0
-17 -20 0
3 18 0
-3 -18 0
12 18 19 0
-12 -18 -19 0
18 20 21 0
-18 -20 -21 0
4 18 19 0
-4 -18 -19 0
13 19 0
-13 -19 0
19 20 22 0
-19 -20 -22 0
5 18 20 0
-5 -18 -20 0
14 19 20 0
-14 -19 -20 0
15 19 21 0
-15 -19 -21 0
7 18 22 0
-7 -18 -22 0
16 19 22 0
-16 -19 -22 0
