certificates/rado_a9_c177_N22.drat
-20 -21 -22 0
-21 -22 0
d -10 -21 -22 0
-22 0
1 0
-20 21 0
20 21 0
d 8 20 21 0
21 0
-9 0
-13 0
19 0
-7 0
-15 0
18 0
-3 0
-16 0
-6 0
-20 0
-12 0
-4 0
0
